p cnf 875 2090
1 2 3  0
-4 1 0
4 -1 0
-5 4 2 0
5 -4 0
5 -2 0
-4 -2 0
-5 -3 0
6 7 8  0
-9 6 0
9 -6 0
-10 9 7 0
10 -9 0
10 -7 0
-9 -7 0
-10 -8 0
11 12 13  0
-14 11 0
14 -11 0
-15 14 12 0
15 -14 0
15 -12 0
-14 -12 0
-15 -13 0
16 17 18  0
-19 16 0
19 -16 0
-20 19 17 0
20 -19 0
20 -17 0
-19 -17 0
-20 -18 0
21 22 23  0
-24 21 0
24 -21 0
-25 24 22 0
25 -24 0
25 -22 0
-24 -22 0
-25 -23 0
26 27 28  0
-29 26 0
29 -26 0
-30 29 27 0
30 -29 0
30 -27 0
-29 -27 0
-30 -28 0
31 32 33  0
-34 31 0
34 -31 0
-35 34 32 0
35 -34 0
35 -32 0
-34 -32 0
-35 -33 0
36 37 38  0
-39 36 0
39 -36 0
-40 39 37 0
40 -39 0
40 -37 0
-39 -37 0
-40 -38 0
41 42 43  0
-44 41 0
44 -41 0
-45 44 42 0
45 -44 0
45 -42 0
-44 -42 0
-45 -43 0
46 47 48  0
-49 46 0
49 -46 0
-50 49 47 0
50 -49 0
50 -47 0
-49 -47 0
-50 -48 0
51 52 53  0
-54 51 0
54 -51 0
-55 54 52 0
55 -54 0
55 -52 0
-54 -52 0
-55 -53 0
56 57 58  0
-59 56 0
59 -56 0
-60 59 57 0
60 -59 0
60 -57 0
-59 -57 0
-60 -58 0
61 62 63  0
-64 61 0
64 -61 0
-65 64 62 0
65 -64 0
65 -62 0
-64 -62 0
-65 -63 0
66 67 68  0
-69 66 0
69 -66 0
-70 69 67 0
70 -69 0
70 -67 0
-69 -67 0
-70 -68 0
71 72 73  0
-74 71 0
74 -71 0
-75 74 72 0
75 -74 0
75 -72 0
-74 -72 0
-75 -73 0
76 77 78  0
-79 76 0
79 -76 0
-80 79 77 0
80 -79 0
80 -77 0
-79 -77 0
-80 -78 0
81 82 83  0
-84 81 0
84 -81 0
-85 84 82 0
85 -84 0
85 -82 0
-84 -82 0
-85 -83 0
86 87 88  0
-89 86 0
89 -86 0
-90 89 87 0
90 -89 0
90 -87 0
-89 -87 0
-90 -88 0
91 92 93  0
-94 91 0
94 -91 0
-95 94 92 0
95 -94 0
95 -92 0
-94 -92 0
-95 -93 0
96 97 98  0
-99 96 0
99 -96 0
-100 99 97 0
100 -99 0
100 -97 0
-99 -97 0
-100 -98 0
101 102 103  0
-104 101 0
104 -101 0
-105 104 102 0
105 -104 0
105 -102 0
-104 -102 0
-105 -103 0
106 107 108  0
-109 106 0
109 -106 0
-110 109 107 0
110 -109 0
110 -107 0
-109 -107 0
-110 -108 0
111 112 113  0
-114 111 0
114 -111 0
-115 114 112 0
115 -114 0
115 -112 0
-114 -112 0
-115 -113 0
116 117 118  0
-119 116 0
119 -116 0
-120 119 117 0
120 -119 0
120 -117 0
-119 -117 0
-120 -118 0
121 122 123  0
-124 121 0
124 -121 0
-125 124 122 0
125 -124 0
125 -122 0
-124 -122 0
-125 -123 0
126 127 128  0
-129 126 0
129 -126 0
-130 129 127 0
130 -129 0
130 -127 0
-129 -127 0
-130 -128 0
131 132 133  0
-134 131 0
134 -131 0
-135 134 132 0
135 -134 0
135 -132 0
-134 -132 0
-135 -133 0
136 137 138  0
-139 136 0
139 -136 0
-140 139 137 0
140 -139 0
140 -137 0
-139 -137 0
-140 -138 0
141 142 143  0
-144 141 0
144 -141 0
-145 144 142 0
145 -144 0
145 -142 0
-144 -142 0
-145 -143 0
146 147 148  0
-149 146 0
149 -146 0
-150 149 147 0
150 -149 0
150 -147 0
-149 -147 0
-150 -148 0
151 152 153  0
-154 151 0
154 -151 0
-155 154 152 0
155 -154 0
155 -152 0
-154 -152 0
-155 -153 0
156 157 158  0
-159 156 0
159 -156 0
-160 159 157 0
160 -159 0
160 -157 0
-159 -157 0
-160 -158 0
161 162 163  0
-164 161 0
164 -161 0
-165 164 162 0
165 -164 0
165 -162 0
-164 -162 0
-165 -163 0
166 167 168  0
-169 166 0
169 -166 0
-170 169 167 0
170 -169 0
170 -167 0
-169 -167 0
-170 -168 0
171 172 173  0
-174 171 0
174 -171 0
-175 174 172 0
175 -174 0
175 -172 0
-174 -172 0
-175 -173 0
176 177 178  0
-179 176 0
179 -176 0
-180 179 177 0
180 -179 0
180 -177 0
-179 -177 0
-180 -178 0
181 182 183  0
-184 181 0
184 -181 0
-185 184 182 0
185 -184 0
185 -182 0
-184 -182 0
-185 -183 0
186 187 188  0
-189 186 0
189 -186 0
-190 189 187 0
190 -189 0
190 -187 0
-189 -187 0
-190 -188 0
191 192 193  0
-194 191 0
194 -191 0
-195 194 192 0
195 -194 0
195 -192 0
-194 -192 0
-195 -193 0
196 197 198  0
-199 196 0
199 -196 0
-200 199 197 0
200 -199 0
200 -197 0
-199 -197 0
-200 -198 0
201 202 203  0
-204 201 0
204 -201 0
-205 204 202 0
205 -204 0
205 -202 0
-204 -202 0
-205 -203 0
206 207 208  0
-209 206 0
209 -206 0
-210 209 207 0
210 -209 0
210 -207 0
-209 -207 0
-210 -208 0
211 212 213  0
-214 211 0
214 -211 0
-215 214 212 0
215 -214 0
215 -212 0
-214 -212 0
-215 -213 0
216 217 218  0
-219 216 0
219 -216 0
-220 219 217 0
220 -219 0
220 -217 0
-219 -217 0
-220 -218 0
221 222 223  0
-224 221 0
224 -221 0
-225 224 222 0
225 -224 0
225 -222 0
-224 -222 0
-225 -223 0
226 227 228  0
-229 226 0
229 -226 0
-230 229 227 0
230 -229 0
230 -227 0
-229 -227 0
-230 -228 0
231 232 233  0
-234 231 0
234 -231 0
-235 234 232 0
235 -234 0
235 -232 0
-234 -232 0
-235 -233 0
236 237 238  0
-239 236 0
239 -236 0
-240 239 237 0
240 -239 0
240 -237 0
-239 -237 0
-240 -238 0
241 242 243  0
-244 241 0
244 -241 0
-245 244 242 0
245 -244 0
245 -242 0
-244 -242 0
-245 -243 0
246 247 248  0
-249 246 0
249 -246 0
-250 249 247 0
250 -249 0
250 -247 0
-249 -247 0
-250 -248 0
251 252 253  0
-254 251 0
254 -251 0
-255 254 252 0
255 -254 0
255 -252 0
-254 -252 0
-255 -253 0
256 257 258  0
-259 256 0
259 -256 0
-260 259 257 0
260 -259 0
260 -257 0
-259 -257 0
-260 -258 0
261 262 263  0
-264 261 0
264 -261 0
-265 264 262 0
265 -264 0
265 -262 0
-264 -262 0
-265 -263 0
266 267 268  0
-269 266 0
269 -266 0
-270 269 267 0
270 -269 0
270 -267 0
-269 -267 0
-270 -268 0
271 272 273  0
-274 271 0
274 -271 0
-275 274 272 0
275 -274 0
275 -272 0
-274 -272 0
-275 -273 0
276 277 278  0
-279 276 0
279 -276 0
-280 279 277 0
280 -279 0
280 -277 0
-279 -277 0
-280 -278 0
281 282 283  0
-284 281 0
284 -281 0
-285 284 282 0
285 -284 0
285 -282 0
-284 -282 0
-285 -283 0
286 287 288  0
-289 286 0
289 -286 0
-290 289 287 0
290 -289 0
290 -287 0
-289 -287 0
-290 -288 0
291 292 293  0
-294 291 0
294 -291 0
-295 294 292 0
295 -294 0
295 -292 0
-294 -292 0
-295 -293 0
296 297 298  0
-299 296 0
299 -296 0
-300 299 297 0
300 -299 0
300 -297 0
-299 -297 0
-300 -298 0
301 302 303  0
-304 301 0
304 -301 0
-305 304 302 0
305 -304 0
305 -302 0
-304 -302 0
-305 -303 0
306 307 308  0
-309 306 0
309 -306 0
-310 309 307 0
310 -309 0
310 -307 0
-309 -307 0
-310 -308 0
311 312 313  0
-314 311 0
314 -311 0
-315 314 312 0
315 -314 0
315 -312 0
-314 -312 0
-315 -313 0
316 317 318  0
-319 316 0
319 -316 0
-320 319 317 0
320 -319 0
320 -317 0
-319 -317 0
-320 -318 0
321 322 323  0
-324 321 0
324 -321 0
-325 324 322 0
325 -324 0
325 -322 0
-324 -322 0
-325 -323 0
326 327 328  0
-329 326 0
329 -326 0
-330 329 327 0
330 -329 0
330 -327 0
-329 -327 0
-330 -328 0
331 332 333  0
-334 331 0
334 -331 0
-335 334 332 0
335 -334 0
335 -332 0
-334 -332 0
-335 -333 0
336 337 338  0
-339 336 0
339 -336 0
-340 339 337 0
340 -339 0
340 -337 0
-339 -337 0
-340 -338 0
341 342 343  0
-344 341 0
344 -341 0
-345 344 342 0
345 -344 0
345 -342 0
-344 -342 0
-345 -343 0
346 347 348  0
-349 346 0
349 -346 0
-350 349 347 0
350 -349 0
350 -347 0
-349 -347 0
-350 -348 0
351 352 353  0
-354 351 0
354 -351 0
-355 354 352 0
355 -354 0
355 -352 0
-354 -352 0
-355 -353 0
356 357 358  0
-359 356 0
359 -356 0
-360 359 357 0
360 -359 0
360 -357 0
-359 -357 0
-360 -358 0
361 362 363  0
-364 361 0
364 -361 0
-365 364 362 0
365 -364 0
365 -362 0
-364 -362 0
-365 -363 0
366 367 368  0
-369 366 0
369 -366 0
-370 369 367 0
370 -369 0
370 -367 0
-369 -367 0
-370 -368 0
371 372 373  0
-374 371 0
374 -371 0
-375 374 372 0
375 -374 0
375 -372 0
-374 -372 0
-375 -373 0
376 377 378  0
-379 376 0
379 -376 0
-380 379 377 0
380 -379 0
380 -377 0
-379 -377 0
-380 -378 0
381 382 383  0
-384 381 0
384 -381 0
-385 384 382 0
385 -384 0
385 -382 0
-384 -382 0
-385 -383 0
386 387 388  0
-389 386 0
389 -386 0
-390 389 387 0
390 -389 0
390 -387 0
-389 -387 0
-390 -388 0
391 392 393  0
-394 391 0
394 -391 0
-395 394 392 0
395 -394 0
395 -392 0
-394 -392 0
-395 -393 0
396 397 398  0
-399 396 0
399 -396 0
-400 399 397 0
400 -399 0
400 -397 0
-399 -397 0
-400 -398 0
401 402 403  0
-404 401 0
404 -401 0
-405 404 402 0
405 -404 0
405 -402 0
-404 -402 0
-405 -403 0
406 407 408  0
-409 406 0
409 -406 0
-410 409 407 0
410 -409 0
410 -407 0
-409 -407 0
-410 -408 0
411 412 413  0
-414 411 0
414 -411 0
-415 414 412 0
415 -414 0
415 -412 0
-414 -412 0
-415 -413 0
416 417 418  0
-419 416 0
419 -416 0
-420 419 417 0
420 -419 0
420 -417 0
-419 -417 0
-420 -418 0
421 422 423  0
-424 421 0
424 -421 0
-425 424 422 0
425 -424 0
425 -422 0
-424 -422 0
-425 -423 0
426 427 428  0
-429 426 0
429 -426 0
-430 429 427 0
430 -429 0
430 -427 0
-429 -427 0
-430 -428 0
431 432 433  0
-434 431 0
434 -431 0
-435 434 432 0
435 -434 0
435 -432 0
-434 -432 0
-435 -433 0
436 437 438  0
-439 436 0
439 -436 0
-440 439 437 0
440 -439 0
440 -437 0
-439 -437 0
-440 -438 0
441 442 443  0
-444 441 0
444 -441 0
-445 444 442 0
445 -444 0
445 -442 0
-444 -442 0
-445 -443 0
446 447 448  0
-449 446 0
449 -446 0
-450 449 447 0
450 -449 0
450 -447 0
-449 -447 0
-450 -448 0
451 452 453  0
-454 451 0
454 -451 0
-455 454 452 0
455 -454 0
455 -452 0
-454 -452 0
-455 -453 0
456 457 458  0
-459 456 0
459 -456 0
-460 459 457 0
460 -459 0
460 -457 0
-459 -457 0
-460 -458 0
461 462 463  0
-464 461 0
464 -461 0
-465 464 462 0
465 -464 0
465 -462 0
-464 -462 0
-465 -463 0
466 467 468  0
-469 466 0
469 -466 0
-470 469 467 0
470 -469 0
470 -467 0
-469 -467 0
-470 -468 0
471 472 473  0
-474 471 0
474 -471 0
-475 474 472 0
475 -474 0
475 -472 0
-474 -472 0
-475 -473 0
476 477 478  0
-479 476 0
479 -476 0
-480 479 477 0
480 -479 0
480 -477 0
-479 -477 0
-480 -478 0
481 482 483  0
-484 481 0
484 -481 0
-485 484 482 0
485 -484 0
485 -482 0
-484 -482 0
-485 -483 0
486 487 488  0
-489 486 0
489 -486 0
-490 489 487 0
490 -489 0
490 -487 0
-489 -487 0
-490 -488 0
491 492 493  0
-494 491 0
494 -491 0
-495 494 492 0
495 -494 0
495 -492 0
-494 -492 0
-495 -493 0
496 497 498  0
-499 496 0
499 -496 0
-500 499 497 0
500 -499 0
500 -497 0
-499 -497 0
-500 -498 0
501 502 503  0
-504 501 0
504 -501 0
-505 504 502 0
505 -504 0
505 -502 0
-504 -502 0
-505 -503 0
506 507 508  0
-509 506 0
509 -506 0
-510 509 507 0
510 -509 0
510 -507 0
-509 -507 0
-510 -508 0
511 512 513  0
-514 511 0
514 -511 0
-515 514 512 0
515 -514 0
515 -512 0
-514 -512 0
-515 -513 0
516 517 518  0
-519 516 0
519 -516 0
-520 519 517 0
520 -519 0
520 -517 0
-519 -517 0
-520 -518 0
521 522 523  0
-524 521 0
524 -521 0
-525 524 522 0
525 -524 0
525 -522 0
-524 -522 0
-525 -523 0
526 527 528  0
-529 526 0
529 -526 0
-530 529 527 0
530 -529 0
530 -527 0
-529 -527 0
-530 -528 0
531 532 533  0
-534 531 0
534 -531 0
-535 534 532 0
535 -534 0
535 -532 0
-534 -532 0
-535 -533 0
536 537 538  0
-539 536 0
539 -536 0
-540 539 537 0
540 -539 0
540 -537 0
-539 -537 0
-540 -538 0
541 542 543  0
-544 541 0
544 -541 0
-545 544 542 0
545 -544 0
545 -542 0
-544 -542 0
-545 -543 0
546 547 548  0
-549 546 0
549 -546 0
-550 549 547 0
550 -549 0
550 -547 0
-549 -547 0
-550 -548 0
551 552 553  0
-554 551 0
554 -551 0
-555 554 552 0
555 -554 0
555 -552 0
-554 -552 0
-555 -553 0
556 557 558  0
-559 556 0
559 -556 0
-560 559 557 0
560 -559 0
560 -557 0
-559 -557 0
-560 -558 0
561 562 563  0
-564 561 0
564 -561 0
-565 564 562 0
565 -564 0
565 -562 0
-564 -562 0
-565 -563 0
566 567 568  0
-569 566 0
569 -566 0
-570 569 567 0
570 -569 0
570 -567 0
-569 -567 0
-570 -568 0
571 572 573  0
-574 571 0
574 -571 0
-575 574 572 0
575 -574 0
575 -572 0
-574 -572 0
-575 -573 0
576 577 578  0
-579 576 0
579 -576 0
-580 579 577 0
580 -579 0
580 -577 0
-579 -577 0
-580 -578 0
581 582 583  0
-584 581 0
584 -581 0
-585 584 582 0
585 -584 0
585 -582 0
-584 -582 0
-585 -583 0
586 587 588  0
-589 586 0
589 -586 0
-590 589 587 0
590 -589 0
590 -587 0
-589 -587 0
-590 -588 0
591 592 593  0
-594 591 0
594 -591 0
-595 594 592 0
595 -594 0
595 -592 0
-594 -592 0
-595 -593 0
596 597 598  0
-599 596 0
599 -596 0
-600 599 597 0
600 -599 0
600 -597 0
-599 -597 0
-600 -598 0
601 602 603  0
-604 601 0
604 -601 0
-605 604 602 0
605 -604 0
605 -602 0
-604 -602 0
-605 -603 0
606 607 608  0
-609 606 0
609 -606 0
-610 609 607 0
610 -609 0
610 -607 0
-609 -607 0
-610 -608 0
611 612 613  0
-614 611 0
614 -611 0
-615 614 612 0
615 -614 0
615 -612 0
-614 -612 0
-615 -613 0
616 617 618  0
-619 616 0
619 -616 0
-620 619 617 0
620 -619 0
620 -617 0
-619 -617 0
-620 -618 0
621 622 623  0
-624 621 0
624 -621 0
-625 624 622 0
625 -624 0
625 -622 0
-624 -622 0
-625 -623 0
626 627 628  0
-629 626 0
629 -626 0
-630 629 627 0
630 -629 0
630 -627 0
-629 -627 0
-630 -628 0
631 632 633  0
-634 631 0
634 -631 0
-635 634 632 0
635 -634 0
635 -632 0
-634 -632 0
-635 -633 0
636 637 638  0
-639 636 0
639 -636 0
-640 639 637 0
640 -639 0
640 -637 0
-639 -637 0
-640 -638 0
641 642 643  0
-644 641 0
644 -641 0
-645 644 642 0
645 -644 0
645 -642 0
-644 -642 0
-645 -643 0
646 647 648  0
-649 646 0
649 -646 0
-650 649 647 0
650 -649 0
650 -647 0
-649 -647 0
-650 -648 0
651 652 653  0
-654 651 0
654 -651 0
-655 654 652 0
655 -654 0
655 -652 0
-654 -652 0
-655 -653 0
656 657 658  0
-659 656 0
659 -656 0
-660 659 657 0
660 -659 0
660 -657 0
-659 -657 0
-660 -658 0
661 662 663  0
-664 661 0
664 -661 0
-665 664 662 0
665 -664 0
665 -662 0
-664 -662 0
-665 -663 0
666 667 668  0
-669 666 0
669 -666 0
-670 669 667 0
670 -669 0
670 -667 0
-669 -667 0
-670 -668 0
671 672 673  0
-674 671 0
674 -671 0
-675 674 672 0
675 -674 0
675 -672 0
-674 -672 0
-675 -673 0
676 677 678  0
-679 676 0
679 -676 0
-680 679 677 0
680 -679 0
680 -677 0
-679 -677 0
-680 -678 0
681 682 683  0
-684 681 0
684 -681 0
-685 684 682 0
685 -684 0
685 -682 0
-684 -682 0
-685 -683 0
686 687 688  0
-689 686 0
689 -686 0
-690 689 687 0
690 -689 0
690 -687 0
-689 -687 0
-690 -688 0
691 692 693  0
-694 691 0
694 -691 0
-695 694 692 0
695 -694 0
695 -692 0
-694 -692 0
-695 -693 0
696 697 698  0
-699 696 0
699 -696 0
-700 699 697 0
700 -699 0
700 -697 0
-699 -697 0
-700 -698 0
701 702 703  0
-704 701 0
704 -701 0
-705 704 702 0
705 -704 0
705 -702 0
-704 -702 0
-705 -703 0
706 707 708  0
-709 706 0
709 -706 0
-710 709 707 0
710 -709 0
710 -707 0
-709 -707 0
-710 -708 0
711 712 713  0
-714 711 0
714 -711 0
-715 714 712 0
715 -714 0
715 -712 0
-714 -712 0
-715 -713 0
716 717 718  0
-719 716 0
719 -716 0
-720 719 717 0
720 -719 0
720 -717 0
-719 -717 0
-720 -718 0
721 722 723  0
-724 721 0
724 -721 0
-725 724 722 0
725 -724 0
725 -722 0
-724 -722 0
-725 -723 0
726 727 728  0
-729 726 0
729 -726 0
-730 729 727 0
730 -729 0
730 -727 0
-729 -727 0
-730 -728 0
731 732 733  0
-734 731 0
734 -731 0
-735 734 732 0
735 -734 0
735 -732 0
-734 -732 0
-735 -733 0
736 737 738  0
-739 736 0
739 -736 0
-740 739 737 0
740 -739 0
740 -737 0
-739 -737 0
-740 -738 0
741 742 743  0
-744 741 0
744 -741 0
-745 744 742 0
745 -744 0
745 -742 0
-744 -742 0
-745 -743 0
746 747 748  0
-749 746 0
749 -746 0
-750 749 747 0
750 -749 0
750 -747 0
-749 -747 0
-750 -748 0
751 752 753  0
-754 751 0
754 -751 0
-755 754 752 0
755 -754 0
755 -752 0
-754 -752 0
-755 -753 0
756 757 758  0
-759 756 0
759 -756 0
-760 759 757 0
760 -759 0
760 -757 0
-759 -757 0
-760 -758 0
761 762 763  0
-764 761 0
764 -761 0
-765 764 762 0
765 -764 0
765 -762 0
-764 -762 0
-765 -763 0
766 767 768  0
-769 766 0
769 -766 0
-770 769 767 0
770 -769 0
770 -767 0
-769 -767 0
-770 -768 0
771 772 773  0
-774 771 0
774 -771 0
-775 774 772 0
775 -774 0
775 -772 0
-774 -772 0
-775 -773 0
776 777 778  0
-779 776 0
779 -776 0
-780 779 777 0
780 -779 0
780 -777 0
-779 -777 0
-780 -778 0
781 782 783  0
-784 781 0
784 -781 0
-785 784 782 0
785 -784 0
785 -782 0
-784 -782 0
-785 -783 0
786 787 788  0
-789 786 0
789 -786 0
-790 789 787 0
790 -789 0
790 -787 0
-789 -787 0
-790 -788 0
791 792 793  0
-794 791 0
794 -791 0
-795 794 792 0
795 -794 0
795 -792 0
-794 -792 0
-795 -793 0
796 797 798  0
-799 796 0
799 -796 0
-800 799 797 0
800 -799 0
800 -797 0
-799 -797 0
-800 -798 0
801 802 803  0
-804 801 0
804 -801 0
-805 804 802 0
805 -804 0
805 -802 0
-804 -802 0
-805 -803 0
806 807 808  0
-809 806 0
809 -806 0
-810 809 807 0
810 -809 0
810 -807 0
-809 -807 0
-810 -808 0
811 812 813  0
-814 811 0
814 -811 0
-815 814 812 0
815 -814 0
815 -812 0
-814 -812 0
-815 -813 0
816 817 818  0
-819 816 0
819 -816 0
-820 819 817 0
820 -819 0
820 -817 0
-819 -817 0
-820 -818 0
821 822 823  0
-824 821 0
824 -821 0
-825 824 822 0
825 -824 0
825 -822 0
-824 -822 0
-825 -823 0
826 827 828  0
-829 826 0
829 -826 0
-830 829 827 0
830 -829 0
830 -827 0
-829 -827 0
-830 -828 0
831 832 833  0
-834 831 0
834 -831 0
-835 834 832 0
835 -834 0
835 -832 0
-834 -832 0
-835 -833 0
836 837 838  0
-839 836 0
839 -836 0
-840 839 837 0
840 -839 0
840 -837 0
-839 -837 0
-840 -838 0
841 842 843  0
-844 841 0
844 -841 0
-845 844 842 0
845 -844 0
845 -842 0
-844 -842 0
-845 -843 0
846 847 848  0
-849 846 0
849 -846 0
-850 849 847 0
850 -849 0
850 -847 0
-849 -847 0
-850 -848 0
851 852 853  0
-854 851 0
854 -851 0
-855 854 852 0
855 -854 0
855 -852 0
-854 -852 0
-855 -853 0
856 857 858  0
-859 856 0
859 -856 0
-860 859 857 0
860 -859 0
860 -857 0
-859 -857 0
-860 -858 0
861 862 863  0
-864 861 0
864 -861 0
-865 864 862 0
865 -864 0
865 -862 0
-864 -862 0
-865 -863 0
866 867 868  0
-869 866 0
869 -866 0
-870 869 867 0
870 -869 0
870 -867 0
-869 -867 0
-870 -868 0
871 872 873  0
-874 871 0
874 -871 0
-875 874 872 0
875 -874 0
875 -872 0
-874 -872 0
-875 -873 0
213 701 408 0
582 712 656 0
868 33 481 0
422 328 346 0
376 787 602 0
81 593 767 0
661 862 781 0
596 373 686 0
686 566 397 0
323 817 146 0
317 527 718 0
831 802 157 0
398 816 531 0
838 253 191 0
136 3 206 0
342 527 613 0
398 51 367 0
348 323 202 0
168 482 726 0
803 572 787 0
113 813 511 0
63 852 281 0
231 561 441 0
193 788 656 0
628 823 818 0
497 628 656 0
26 768 683 0
502 741 178 0
737 293 273 0
531 463 791 0
636 426 121 0
511 507 766 0
432 793 483 0
302 348 478 0
481 773 753 0
516 226 322 0
686 746 812 0
821 441 598 0
338 517 257 0
388 557 126 0
621 606 373 0
133 598 451 0
317 211 136 0
218 462 698 0
467 223 606 0
388 172 397 0
218 133 823 0
268 837 653 0
821 852 218 0
731 318 863 0
542 452 67 0
812 236 332 0
402 462 232 0
418 76 83 0
787 57 128 0
748 328 731 0
63 192 488 0
308 422 378 0
831 662 227 0
203 643 163 0
356 71 372 0
607 243 127 0
642 78 358 0
426 553 43 0
753 761 102 0
502 303 368 0
372 726 46 0
278 653 567 0
443 217 611 0
313 48 421 0
186 296 671 0
842 303 491 0
63 747 252 0
506 528 853 0
351 301 101 0
782 411 42 0
816 118 673 0
302 527 773 0
653 833 177 0
686 572 261 0
728 497 177 0
542 82 397 0
616 222 638 0
153 828 252 0
453 787 233 0
661 42 408 0
101 262 723 0
293 271 196 0
413 811 652 0
678 693 228 0
258 567 822 0
708 492 377 0
36 362 607 0
607 27 16 0
803 431 698 0
502 383 38 0
731 181 478 0
106 313 716 0
531 756 701 0
32 317 276 0
502 203 546 0
856 172 648 0
26 391 96 0
287 93 677 0
757 331 813 0
72 841 466 0
576 96 348 0
243 213 537 0
793 447 193 0
252 366 443 0
566 321 268 0
426 337 673 0
243 256 576 0
317 703 26 0
686 817 71 0
366 206 128 0
436 576 821 0
243 263 236 0
762 367 436 0
683 757 506 0
26 316 722 0
628 212 23 0
136 463 116 0
653 242 723 0
376 492 571 0
566 382 227 0
487 252 216 0
372 732 853 0
413 3 336 0
402 871 837 0
728 342 466 0
163 157 857 0
317 352 418 0
502 787 698 0
72 116 176 0
767 577 137 0
63 862 282 0
803 443 232 0
762 432 407 0
231 791 427 0
418 498 193 0
78 847 411 0
803 358 692 0
317 618 812 0
278 696 817 0
258 172 27 0
528 443 268 0
661 343 47 0
596 847 462 0
522 782 491 0
263 652 548 0
418 807 326 0
143 853 246 0
43 32 533 0
2 143 7 0
477 411 762 0
2 32 308 0
57 608 591 0
238 731 517 0
812 448 291 0
737 293 551 0
502 151 777 0
511 781 202 0
422 142 816 0
537 63 341 0
462 276 368 0
21 227 36 0
52 536 646 0
743 281 588 0
97 133 687 0
372 347 731 0
487 317 521 0
542 431 297 0
588 351 413 0
218 167 333 0
661 426 296 0
612 552 521 0
163 133 138 0
302 567 222 0
448 693 343 0
348 558 637 0
157 306 807 0
443 546 792 0
457 81 191 0
633 498 613 0
656 66 117 0
537 462 701 0
748 743 81 0
26 406 77 0
418 406 613 0
268 116 8 0
81 73 196 0
453 548 277 0
856 143 822 0
862 357 821 0
471 363 107 0
603 257 27 0
588 868 616 0
471 81 581 0
168 562 127 0
213 872 263 0
556 617 538 0
287 262 273 0
136 856 241 0
243 596 746 0
48 41 431 0
388 527 148 0
868 587 182 0
263 471 136 0
566 278 738 0
326 861 777 0
426 821 301 0
596 573 648 0
582 528 121 0
672 387 193 0
52 757 657 0
213 872 338 0
238 646 782 0
748 503 541 0
376 247 803 0
402 488 592 0
172 642 743 0
831 836 333 0
847 452 573 0
26 442 563 0
787 821 481 0
607 13 258 0
686 433 143 0
448 856 636 0
323 607 271 0
13 188 638 0
502 436 742 0
332 358 576 0
653 387 31 0
351 362 492 0
588 812 357 0
808 253 328 0
793 833 493 0
376 828 431 0
678 91 732 0
223 206 613 0
497 211 121 0
497 811 656 0
607 463 68 0
803 442 863 0
207 668 18 0
856 122 353 0
207 733 612 0
522 117 238 0
68 843 173 0
207 857 2 0
128 213 863 0
168 842 666 0
847 1 802 0
686 332 376 0
278 326 523 0
448 611 572 0
338 696 856 0
57 36 287 0
628 261 458 0
323 272 816 0
92 221 508 0
366 837 737 0
856 197 692 0
48 633 581 0
803 218 517 0
263 721 662 0
487 752 351 0
636 721 7 0
871 861 238 0
728 286 711 0
366 528 443 0
656 702 611 0
678 222 573 0
511 333 851 0
767 732 558 0
773 291 217 0
143 467 122 0
593 777 488 0
113 292 243 0
203 752 501 0
426 283 636 0
566 423 833 0
153 858 576 0
32 292 652 0
522 648 148 0
826 346 43 0
392 356 862 0
862 437 122 0
186 161 621 0
218 41 753 0
777 528 47 0
506 282 552 0
593 32 578 0
153 22 271 0
528 317 711 0
803 52 182 0
582 841 377 0
653 6 852 0
207 457 372 0
392 522 732 0
362 381 801 0
72 617 61 0
728 643 192 0
551 843 732 0
477 63 832 0
213 233 277 0
753 526 758 0
453 826 376 0
2 227 653 0
448 328 482 0
862 843 158 0
443 371 402 0
13 162 366 0
522 702 712 0
656 598 202 0
621 652 776 0
762 768 771 0
672 338 596 0
838 612 141 0
717 663 596 0
661 263 218 0
366 721 188 0
36 837 28 0
332 583 631 0
703 476 497 0
672 222 253 0
563 36 556 0
443 47 453 0
607 488 242 0
697 458 662 0
181 487 867 0
207 663 388 0
48 831 143 0
213 467 197 0
448 688 407 0
703 111 576 0
612 756 313 0
268 408 367 0
338 417 298 0
272 398 713 0
838 168 153 0
223 852 616 0
356 237 626 0
186 776 486 0
642 822 396 0
133 668 168 0
13 557 163 0
287 23 32 0
81 153 706 0
842 492 453 0
88 288 488 0
582 162 631 0
607 647 788 0
148 197 747 0
296 713 81 0
737 48 188 0
686 271 147 0
97 612 692 0
481 422 488 0
717 636 556 0
413 858 678 0
542 421 587 0
376 281 171 0
531 152 462 0
531 833 556 0
487 401 788 0
366 323 481 0
767 147 761 0
48 146 696 0
332 353 498 0
213 38 368 0
106 743 81 0
731 447 566 0
101 341 526 0
588 456 493 0
467 827 706 0
227 801 767 0
731 871 621 0
697 368 791 0
342 17 313 0
398 22 656 0
172 131 571 0
678 797 58 0
72 673 116 0
531 811 67 0
728 408 17 0
178 412 72 0
148 133 376 0
57 183 708 0
323 663 18 0
223 552 778 0
218 628 843 0
636 26 268 0
32 298 121 0
816 61 452 0
748 776 546 0
106 658 586 0
92 801 13 0
728 532 676 0
551 708 666 0
666 491 418 0
672 287 118 0
762 227 241 0
181 217 378 0
402 113 93 0
453 641 443 0
462 233 477 0
8 156 737 0
656 506 167 0
323 348 72 0
203 476 847 0
628 308 258 0
537 718 472 0
633 362 458 0
522 121 32 0
372 241 346 0
248 551 848 0
366 488 471 0
467 131 453 0
563 93 808 0
847 457 587 0
842 82 482 0
812 733 606 0
282 856 3 0
826 352 307 0
88 867 708 0
448 676 122 0
636 87 256 0
672 192 546 0
21 826 107 0
248 817 716 0
871 686 771 0
43 342 306 0
477 828 718 0
133 398 443 0
856 348 647 0
497 778 568 0
408 563 411 0
603 456 692 0
157 178 593 0
457 722 627 0
258 608 157 0
743 658 27 0
443 323 637 0
148 363 833 0
728 873 217 0
148 676 446 0
372 703 772 0
196 523 133 0
642 571 447 0
497 596 581 0
531 433 772 0
787 43 112 0
646 482 578 0
831 656 252 0
348 17 112 0
593 493 186 0
392 601 706 0
178 618 396 0
793 52 762 0
477 717 272 0
856 502 243 0
348 716 302 0
196 692 712 0
133 772 438 0
757 242 98 0
633 458 811 0
708 683 702 0
743 57 356 0
63 58 778 0
101 556 537 0
372 776 466 0
607 811 542 0
477 346 193 0
656 132 521 0
497 472 576 0
21 562 513 0
556 11 532 0
803 263 571 0
731 177 651 0
326 318 263 0
757 642 317 0
576 222 396 0
143 82 153 0
2 82 181 0
462 801 506 0
88 718 473 0
628 353 831 0
856 417 772 0
516 796 152 0
287 37 56 0
576 403 296 0
492 387 391 0
511 32 261 0
656 127 437 0
2 838 668 0
777 77 811 0
143 398 56 0
342 546 868 0
717 503 816 0
612 483 788 0
796 787 628 0
767 528 807 0
448 72 866 0
453 223 542 0
511 381 263 0
366 1 268 0
506 76 398 0
57 291 483 0
467 812 222 0
193 671 756 0
133 276 611 0
582 103 282 0
106 788 577 0
43 522 278 0
471 628 651 0
528 728 448 0
757 463 252 0
436 833 747 0
436 852 653 0
113 691 478 0
743 78 578 0
582 228 236 0
81 2 853 0
338 298 522 0
106 81 22 0
351 132 323 0
418 192 146 0
193 612 537 0
678 618 821 0
2 283 857 0
821 846 736 0
516 213 78 0
506 376 86 0
388 161 392 0
2 83 736 0
808 623 588 0
123 423 776 0
457 301 466 0
36 861 532 0
172 48 318 0
708 202 42 0
426 846 621 0
178 626 521 0
157 863 648 0
97 571 621 0
282 796 286 0
366 118 767 0
268 206 831 0
348 17 337 0
757 491 478 0
868 458 203 0
717 487 762 0
133 252 338 0
821 487 838 0
826 311 182 0
767 63 306 0
186 183 793 0
213 518 221 0
537 237 321 0
453 266 567 0
392 406 616 0
842 396 3 0
81 72 847 0
278 183 42 0
678 468 227 0
862 677 53 0
181 328 492 0
372 458 31 0
178 871 66 0
178 233 566 0
326 253 731 0
537 723 601 0
531 782 312 0
68 683 416 0
207 476 511 0
453 686 372 0
816 582 563 0
117 108 278 0
712 691 822 0
777 771 643 0
422 848 26 0
342 362 123 0
436 821 78 0
767 77 62 0
223 773 603 0
72 507 768 0
703 312 613 0
497 836 556 0
443 121 6 0
313 773 701 0
163 46 103 0
113 173 617 0
317 327 447 0
487 828 78 0
757 517 556 0
477 757 516 0
26 683 413 0
168 523 331 0
793 533 61 0
422 432 218 0
332 858 727 0
448 333 633 0
8 546 517 0
332 573 182 0
636 98 232 0
432 537 253 0
113 466 147 0
282 478 582 0
506 593 57 0
633 272 243 0
481 761 812 0
588 251 186 0
422 297 162 0
302 443 838 0
812 467 486 0
628 128 327 0
252 806 683 0
263 281 807 0
392 238 372 0
868 672 683 0
762 622 397 0
402 148 203 0
616 343 757 0
43 32 807 0
666 323 328 0
248 318 96 0
13 742 762 0
748 288 233 0
8 732 182 0
633 228 72 0
258 736 221 0
178 471 432 0
392 327 147 0
582 18 118 0
646 13 371 0
366 127 22 0
227 277 588 0
773 648 282 0
547 676 868 0
628 462 22 0
737 668 608 0
551 858 736 0
26 91 727 0
551 627 531 0
422 87 836 0
308 473 37 0
13 656 371 0
97 807 37 0
143 61 193 0
218 741 436 0
342 858 821 0
223 253 532 0
443 428 492 0
231 472 487 0
293 626 817 0
372 43 797 0
743 152 122 0
57 228 241 0
522 681 481 0
2 597 611 0
178 27 636 0
547 16 133 0
376 871 721 0
72 777 303 0
753 827 317 0
826 36 453 0
511 361 272 0
402 286 531 0
263 527 866 0
43 652 232 0
282 66 233 0
78 72 408 0
426 42 278 0
113 563 872 0
481 257 458 0
163 381 567 0
588 847 872 0
68 72 368 0
683 677 456 0
723 452 217 0
748 698 383 0
831 548 742 0
282 451 86 0
186 153 347 0
773 37 308 0
57 37 587 0
402 342 117 0
123 831 667 0
